100
1000
494
493
490
488
477
474
470
465
462
449
449
448
447
447
444
442
436
436
432
428
428
423
421
418
417
416
410
409
408
405
402
401
401
400
399
395
395
394
388
387
387
380
378
378
372
372
364
364
360
356
354
347
346
346
332
331
331
326
317
317
315
314
313
312
308
305
303
301
299
295
294
292
291
288
288
283
282
279
278
275
272
270
268
268
255
255
242
240
237
236
234
215
211
208
206
206
203
196
191
167
